5 6 118
4 5 1 2 1 3 2 4 3 3 35 35 63 63 95 98 118 
3 4 1 4 2 5 4 13 53 53 95 95 117 
5 3 1 1 2 1 3 2 2 2 3 5 43 43 61 61 77 77 101 101 117 
5 1 1 5 2 5 3 1 4 3 3 15 35 40 66 66 88 88 100 100 114 
9 3 1 4 1 4 1 5 2 5 2 1 4 1 4 4 3 4 3 0 5 5 9 9 13 32 35 35 40 74 77 77 80 91 95 95 98 
13 5 1 1 1 1 1 2 1 2 1 1 2 1 2 3 2 2 2 5 4 5 4 3 3 3 3 0 3 3 9 9 15 15 18 18 21 30 35 35 38 43 47 63 67 85 88 88 92 92 95 95 100 
